(set-logic HORN)
(set-info :source |
    Benchmark: C_VC
    Output by Princess (http://www.philipp.ruemmer.org/princess.shtml)
|)
(set-info :status unknown)
(declare-fun inv_main15 (Int Int Int Int) Bool)
(declare-fun inv_main2 (Int Int) Bool)
(declare-fun inv_main7 (Int Int Int Int) Bool)
(assert (forall ((var0 Int)) (forall ((var1 Int)) (inv_main2 var0 var1 ) ) ) )
(assert (forall ((var0 Int)) (forall ((var1 Int)) (forall ((var2 Int)) (forall ((var3 Int)) (or (not (and (inv_main7 var1 var3 var2 var0 ) (and (<= 0 (+ (+ (+ var2 1 ) (* (- 1) var3 ) ) (- 1) ) ) (<= 0 (+ (+ var1 (* (- 1) var2 ) ) (- 1) ) ) ) ) ) (inv_main7 var1 var3 (+ var2 1 ) (+ var0 1 ) ) ) ) ) ) ) )
(assert (forall ((var0 Int)) (forall ((var1 Int)) (forall ((var2 Int)) (forall ((var3 Int)) (or (not (and (inv_main7 var1 var3 var2 var0 ) (and (not (<= 0 (+ (+ (+ var2 1 ) (* (- 1) var3 ) ) (- 1) ) ) ) (<= 0 (+ (+ var1 (* (- 1) var2 ) ) (- 1) ) ) ) ) ) (inv_main7 var1 var3 (+ var2 1 ) var0 ) ) ) ) ) ) )
(assert (forall ((var0 Int)) (forall ((var1 Int)) (forall ((var2 Int)) (forall ((var3 Int)) (or (not (and (inv_main7 var1 var3 var2 var0 ) (and (not (= var0 var1 ) ) (not (<= 0 (+ (+ var1 (* (- 1) var2 ) ) (- 1) ) ) ) ) ) ) (inv_main15 var1 var3 var2 var0 ) ) ) ) ) ) )
(assert (forall ((var0 Int)) (forall ((var1 Int)) (or (not (and (inv_main2 var0 var1 ) (and (<= 0 (+ (+ var0 (* (- 1) var1 ) ) (- 1) ) ) (and (<= 0 var1 ) (<= 0 var0 ) ) ) ) ) (inv_main7 var0 var1 0 var1 ) ) ) ) )
(assert (forall ((var0 Int)) (forall ((var1 Int)) (forall ((var2 Int)) (forall ((var3 Int)) (not (inv_main15 var1 var3 var2 var0 ) ) ) ) ) ) )
(check-sat)
